(set-logic QF_UF)
(declare-fun A0 () Bool)
(declare-fun A1 () Bool)
(declare-fun A3 () Bool)
(declare-fun A4 () Bool)
(declare-fun A6 () Bool)
(declare-fun A7 () Bool)
(declare-fun A8 () Bool)
(declare-fun A9 () Bool)
(declare-fun A10 () Bool)
(declare-fun A11 () Bool)
(declare-fun A12 () Bool)
(declare-fun A14 () Bool)
(declare-fun A15 () Bool)
(declare-fun A16 () Bool)
(declare-fun A17 () Bool)
(declare-fun A18 () Bool)
(declare-fun A19 () Bool)
(declare-fun A20 () Bool)
(declare-fun A22 () Bool)
(declare-fun A24 () Bool)
(declare-fun A25 () Bool)
(declare-fun A27 () Bool)
(declare-fun A28 () Bool)
(declare-fun A29 () Bool)
(assert (let ((.def_0 (not A4))) (let ((.def_1 (not A16))) (let ((.def_2 (and .def_1 .def_0))) (let ((.def_3 (not .def_2))) (let ((.def_4 (and A6 A9))) (let ((.def_5 (and .def_4 .def_3))) (let ((.def_6 (not A8))) (let ((.def_7 (= .def_6 A3))) (let ((.def_8 (not A28))) (let ((.def_9 (= A19 .def_8))) (let ((.def_10 (not .def_9))) (let ((.def_11 (and .def_10 .def_7))) (let ((.def_12 (not .def_11))) (let ((.def_13 (= .def_12 .def_5))) (let ((.def_14 (not A3))) (let ((.def_15 (or .def_14 A4))) (let ((.def_16 (not .def_15))) (let ((.def_17 (not A12))) (let ((.def_18 (or .def_17 A24))) (let ((.def_19 (and .def_18 .def_16))) (let ((.def_20 (not .def_19))) (let ((.def_21 (and A3 A18))) (let ((.def_22 (not A14))) (let ((.def_23 (not A17))) (let ((.def_24 (and .def_23 .def_22))) (let ((.def_25 (not .def_24))) (let ((.def_26 (or .def_25 .def_21))) (let ((.def_27 (and .def_26 .def_20))) (let ((.def_28 (not .def_27))) (let ((.def_29 (and .def_28 .def_13))) (let ((.def_30 (not A11))) (let ((.def_31 (and .def_17 .def_30))) (let ((.def_32 (not A18))) (let ((.def_33 (not A22))) (let ((.def_34 (and .def_33 .def_32))) (let ((.def_35 (not .def_34))) (let ((.def_36 (or .def_35 .def_31))) (let ((.def_37 (and A11 .def_23))) (let ((.def_38 (or A20 .def_6))) (let ((.def_39 (not .def_38))) (let ((.def_40 (and .def_39 .def_37))) (let ((.def_41 (not .def_40))) (let ((.def_42 (and .def_41 .def_36))) (let ((.def_43 (or A14 A4))) (let ((.def_44 (not .def_43))) (let ((.def_45 (not A20))) (let ((.def_46 (or .def_45 .def_14))) (let ((.def_47 (and .def_46 .def_44))) (let ((.def_48 (not .def_47))) (let ((.def_49 (not A0))) (let ((.def_50 (and .def_14 .def_49))) (let ((.def_51 (and A27 .def_1))) (let ((.def_52 (and .def_51 .def_50))) (let ((.def_53 (not .def_52))) (let ((.def_54 (= .def_53 .def_48))) (let ((.def_55 (and .def_54 .def_42))) (let ((.def_56 (not .def_55))) (let ((.def_57 (or .def_56 .def_29))) (let ((.def_58 (or A4 A15))) (let ((.def_59 (not A1))) (let ((.def_60 (and A28 .def_59))) (let ((.def_61 (not .def_60))) (let ((.def_62 (and .def_61 .def_58))) (let ((.def_63 (not .def_62))) (let ((.def_64 (and .def_0 A6))) (let ((.def_65 (not .def_64))) (let ((.def_66 (not A25))) (let ((.def_67 (or .def_66 A8))) (let ((.def_68 (not .def_67))) (let ((.def_69 (or .def_68 .def_65))) (let ((.def_70 (or .def_69 .def_63))) (let ((.def_71 (or .def_66 A28))) (let ((.def_72 (or .def_45 A12))) (let ((.def_73 (and .def_72 .def_71))) (let ((.def_74 (not A29))) (let ((.def_75 (and .def_74 A27))) (let ((.def_76 (not .def_75))) (let ((.def_77 (not A27))) (let ((.def_78 (and .def_77 .def_30))) (let ((.def_79 (not .def_78))) (let ((.def_80 (or .def_79 .def_76))) (let ((.def_81 (= .def_80 .def_73))) (let ((.def_82 (not .def_81))) (let ((.def_83 (or .def_82 .def_70))) (let ((.def_84 (not .def_83))) (let ((.def_85 (and .def_8 A15))) (let ((.def_86 (not A6))) (let ((.def_87 (and .def_86 A0))) (let ((.def_88 (and .def_87 .def_85))) (let ((.def_89 (not .def_88))) (let ((.def_90 (or A7 A11))) (let ((.def_91 (and .def_1 .def_74))) (let ((.def_92 (and .def_91 .def_90))) (let ((.def_93 (or .def_92 .def_89))) (let ((.def_94 (= A10 .def_77))) (let ((.def_95 (and A3 A29))) (let ((.def_96 (or .def_95 .def_94))) (let ((.def_97 (or .def_22 .def_0))) (let ((.def_98 (not .def_97))) (let ((.def_99 (or A29 .def_0))) (let ((.def_100 (not .def_99))) (let ((.def_101 (or .def_100 .def_98))) (let ((.def_102 (or .def_101 .def_96))) (let ((.def_103 (not .def_102))) (let ((.def_104 (and .def_103 .def_93))) (let ((.def_105 (and .def_104 .def_84))) (let ((.def_106 (= .def_105 .def_57))) .def_106))))))))))))))))))))))))))))))))))))))))))))))))))))))))))))))))))))))))))))))))))))))))))))))))))))))))))))
(check-sat)
